80 8
48 38
2 100
27 73
86 41
57 41
50 78
79 81
67 92
58 46
72 94
86 44
25 48
61 67
28 13
47 35
92 16
38 9
61 75
68 34
41 26
97 81
82 91
46 98
98 82
21 69
26 2
4 8
49 22
95 54
68 72
16 21
92 25
21 43
45 57
55 17
99 25
48 50
93 78
55 45
4 12
85 21
96 91
31 15
10 41
57 97
72 88
22 34
96 29
42 37
77 56
45 49
23 60
98 88
4 18
100 55
4 66
30 22
93 41
23 99
80 36
16 35
72 40
72 53
97 33
48 73
38 52
77 23
1 81
25 21
35 20
11 22
85 96
83 11
85 78
45 44
10 80
74 6
43 86
56 62
77 98
425 483
343 417
363 429
579 718
572 650
509 602
365 412
363 435
